20	5			
59	37	67	39	30
89	41	42	59	43
18	56	75	95	75
65	67	50	57	13
1	79	71	78	88
49	100	30	76	36
99	9	34	44	62
35	46	58	26	73
8	98	97	20	73
39	73	20	55	30
60	18	97	61	22
71	1	4	88	52
76	30	51	77	22
30	98	25	43	5
77	36	76	16	45
5	82	64	13	14
98	84	4	34	26
79	28	84	69	36
38	36	47	86	1
69	19	54	83	97
